SCIP Status        : problem creation / modification
Total Time         :       0.19
  reading          :       0.19
Original Problem   :
  Problem name     : main4.zpl
  Variables        : 16555 (16555 binary, 0 integer, 0 implicit integer, 0 continuous)
  Constraints      : 0 initial, 16855 maximal
  Objective        : minimize, 16555 non-zeros (abs.min = 0.00051, abs.max = 5700)
